words_hard_train/1212.qaiger
aag 86 16 0 1 70
2
4
10
14
18
22
26
30
42
44
48
52
56
70
138
156
172
6 2 5
8 7 5
12 9 10
16 13 15
20 17 18
24 21 23
28 24 27
32 28 31
34 29 30
36 33 35
38 16 19
40 39 21
46 42 44
50 46 48
54 50 52
58 55 57
60 54 56
62 59 61
64 41 63
66 20 22
68 67 25
72 61 71
74 60 70
76 73 75
78 68 77
80 65 79
82 8 11
84 83 13
86 7 47
88 4 45
90 2 42
92 88 91
94 86 93
96 47 49
98 97 51
100 94 98
102 85 101
104 95 99
106 103 105
108 12 14
110 109 17
112 51 53
114 113 55
116 110 115
118 106 117
120 40 62
122 119 121
124 111 114
126 122 125
128 80 127
130 69 76
132 129 131
134 25 26
136 135 29
140 75 139
142 74 138
144 141 143
146 136 145
148 133 147
150 137 144
152 149 151
154 37 153
158 142 157
160 155 159
162 36 152
164 143 156
166 163 165
168 160 167
170 154 158
172 169 171
i0 1 x2[0]
i1 1 x2[1]
i2 1 x2[2]
i3 1 x2[3]
i4 1 x2[4]
i5 1 x2[5]
i6 1 x2[6]
i7 1 x2[7]
i8 2 y1[0]
i9 2 y1[1]
i10 2 y1[2]
i11 2 y1[3]
i12 2 y1[4]
i13 2 y1[5]
i14 2 y1[6]
i15 2 y1[7]
o0 bv[0]
c
simplified
  <=
    invert
      2 y1
    add
      1 x2
      add
        -150
        1
