words_hard_train/1212.qaiger.qdimacs
p cnf 86 211
a 1 2 5 7 9 11 13 15 0
e 3 4 6 8 10 12 14 16 17 18 19 20 21 22 23 24 25 26 27 28 29 30 31 32 33 34 35 36 37 38 39 40 41 42 43 44 45 46 47 48 49 50 51 52 53 54 55 56 57 58 59 60 61 62 63 64 65 66 67 68 69 70 71 72 73 74 75 76 77 78 79 80 81 82 83 84 85 86 0
-1 2 3 0
1 -3 0
-2 -3 0
3 2 4 0
-3 -4 0
-2 -4 0
4 -5 6 0
-4 -6 0
5 -6 0
6 7 8 0
-6 -8 0
-7 -8 0
8 -9 10 0
-8 -10 0
9 -10 0
10 11 12 0
-10 -12 0
-11 -12 0
-12 13 14 0
12 -14 0
-13 -14 0
-14 15 16 0
14 -16 0
-15 -16 0
14 -15 17 0
-14 -17 0
15 -17 0
16 17 18 0
-16 -18 0
-17 -18 0
-8 9 19 0
8 -19 0
-9 -19 0
19 10 20 0
-19 -20 0
-10 -20 0
-21 -22 23 0
21 -23 0
22 -23 0
-23 -24 25 0
23 -25 0
24 -25 0
-25 -26 27 0
25 -27 0
26 -27 0
27 28 29 0
-27 -29 0
-28 -29 0
-27 -28 30 0
27 -30 0
28 -30 0
29 30 31 0
-29 -31 0
-30 -31 0
20 31 32 0
-20 -32 0
-31 -32 0
-10 -11 33 0
10 -33 0
11 -33 0
33 12 34 0
-33 -34 0
-12 -34 0
30 35 36 0
-30 -36 0
-35 -36 0
-30 -35 37 0
30 -37 0
35 -37 0
36 37 38 0
-36 -38 0
-37 -38 0
-34 38 39 0
34 -39 0
-38 -39 0
32 39 40 0
-32 -40 0
-39 -40 0
-4 5 41 0
4 -41 0
-5 -41 0
41 6 42 0
-41 -42 0
-6 -42 0
3 23 43 0
-3 -43 0
-23 -43 0
-2 22 44 0
2 -44 0
-22 -44 0
-1 -21 45 0
1 -45 0
21 -45 0
-44 45 46 0
44 -46 0
-45 -46 0
-43 46 47 0
43 -47 0
-46 -47 0
23 24 48 0
-23 -48 0
-24 -48 0
48 25 49 0
-48 -49 0
-25 -49 0
-47 -49 50 0
47 -50 0
49 -50 0
42 50 51 0
-42 -51 0
-50 -51 0
47 49 52 0
-47 -52 0
-49 -52 0
51 52 53 0
-51 -53 0
-52 -53 0
-6 -7 54 0
6 -54 0
7 -54 0
54 8 55 0
-54 -55 0
-8 -55 0
25 26 56 0
-25 -56 0
-26 -56 0
56 27 57 0
-56 -57 0
-27 -57 0
-55 57 58 0
55 -58 0
-57 -58 0
-53 58 59 0
53 -59 0
-58 -59 0
-20 -31 60 0
20 -60 0
31 -60 0
59 60 61 0
-59 -61 0
-60 -61 0
55 -57 62 0
-55 -62 0
57 -62 0
-61 62 63 0
61 -63 0
-62 -63 0
-40 63 64 0
40 -64 0
-63 -64 0
34 -38 65 0
-34 -65 0
38 -65 0
64 65 66 0
-64 -66 0
-65 -66 0
12 -13 67 0
-12 -67 0
13 -67 0
67 14 68 0
-67 -68 0
-14 -68 0
37 69 70 0
-37 -70 0
-69 -70 0
-37 -69 71 0
37 -71 0
69 -71 0
70 71 72 0
-70 -72 0
-71 -72 0
-68 72 73 0
68 -73 0
-72 -73 0
66 73 74 0
-66 -74 0
-73 -74 0
68 -72 75 0
-68 -75 0
72 -75 0
74 75 76 0
-74 -76 0
-75 -76 0
18 76 77 0
-18 -77 0
-76 -77 0
-71 78 79 0
71 -79 0
-78 -79 0
77 79 80 0
-77 -80 0
-79 -80 0
-18 -76 81 0
18 -81 0
76 -81 0
71 -78 82 0
-71 -82 0
78 -82 0
81 82 83 0
-81 -83 0
-82 -83 0
-80 83 84 0
80 -84 0
-83 -84 0
-77 -79 85 0
77 -85 0
79 -85 0
84 85 86 0
-84 -86 0
-85 -86 0
86 0
